100 204
71 284 2
78 275 2
69 300 4
77 275 2
61 275 4
60 275 4
77 277 2
90 318 2
77 276 2
86 340 2
87 340 2
84 287 2
84 94 4
84 285 2
83 285 2
83 94 2
90 285 2
90 94 2
94 289 2
94 94 2
91 286 2
91 94 4
89 94 2
89 270 2
92 285 2
92 94 2
91 289 2
92 288 2
91 285 2
91 290 2
83 340 2
85 342 2
84 338 2
85 340 2
84 340 2
84 339 2
86 341 2
88 339 2
70 217 2
72 229 2
84 293 2
89 273 2
90 133 1
55 139 2
109 123 1
83 131 1
133 169 1
82 155 1
137 169 1
82 201 1
54 171 3
54 168 2
54 132 3
54 156 3
54 149 3
213 352 2
162 337 1
233 337 3
163 335 1
207 337 2
101 130 2
129 273 2
79 273 2
193 334 1
79 211 1
161 258 1
145 176 1
155 294 1
155 344 2
169 252 1
157 169 3
157 344 3
127 344 2
233 317 2
85 187 1
184 320 1
185 320 1
111 314 1
40 212 2
147 315 2
110 290 1
80 136 8
148 176 2
146 249 2
104 142 2
90 286 2
121 242 2
184 260 1
113 300 3
115 218 4
210 420 4
163 420 4
137 284 2
205 239 1
159 185 1
118 231 1
116 146 1
241 330 2
135 152 2
85 326 1
500 1000 
500 1000 
500 1000 
500 1000 
500 1000 
500 1000 
500 1000 
500 1000 
500 1000 
500 1000 
500 1000 
500 1000 
500 1000 
500 1000 
500 1000 
500 1000 
500 1000 
500 1000 
500 1000 
500 1000 
500 1000 
500 1000 
500 1000 
500 1000 
500 1000 
500 1000 
500 1000 
500 1000 
500 1000 
500 1000 
500 1000 
500 1000 
500 1000 
500 1000 
500 1000 
500 1000 
500 1000 
500 1000 
500 1000 
500 1000 
500 1000 
500 1000 
500 1000 
500 1000 
500 1000 
500 1000 
500 1000 
500 1000 
500 1000 
500 1000 
500 1000 
500 1000 
500 1000 
500 1000 
500 1000 
500 1000 
500 1000 
500 1000 
500 1000 
500 1000 
500 1000 
500 1000 
500 1000 
500 1000 
500 1000 
500 1000 
500 1000 
500 1000 
500 1000 
500 1000 
500 1000 
500 1000 
500 1000 
500 1000 
500 1000 
500 1000 
500 1000 
500 1000 
500 1000 
500 1000 
500 1000 
500 1000 
500 1000 
500 1000 
500 1000 
500 1000 
500 1000 
500 1000 
500 1000 
500 1000 
500 1000 
500 1000 
500 1000 
500 1000 
500 1000 
500 1000 
500 1000 
500 1000 
500 1000 
500 1000 
500 1000 
500 1000 
500 1000 
500 1000 
500 1000 
500 1000 
500 1000 
500 1000 
500 1000 
500 1000 
500 1000 
500 1000 
500 1000 
500 1000 
500 1000 
500 1000 
500 1000 
500 1000 
500 1000 
500 1000 
500 1000 
500 1000 
500 1000 
500 1000 
500 1000 
500 1000 
500 1000 
500 1000 
500 1000 
500 1000 
500 1000 
500 1000 
500 1000 
500 1000 
500 1000 
500 1000 
500 1000 
500 1000 
500 1000 
500 1000 
500 1000 
500 1000 
500 1000 
500 1000 
500 1000 
500 1000 
500 1000 
500 1000 
500 1000 
500 1000 
500 1000 
500 1000 
500 1000 
500 1000 
500 1000 
500 1000 
500 1000 
500 1000 
500 1000 
500 1000 
500 1000 
500 1000 
500 1000 
500 1000 
500 1000 
500 1000 
500 1000 
500 1000 
500 1000 
500 1000 
500 1000 
500 1000 
500 1000 
500 1000 
500 1000 
500 1000 
500 1000 
500 1000 
500 1000 
500 1000 
500 1000 
500 1000 
500 1000 
500 1000 
500 1000 
500 1000 
500 1000 
500 1000 
500 1000 
500 1000 
500 1000 
500 1000 
500 1000 
500 1000 
500 1000 
500 1000 
500 1000 
500 1000 
500 1000 
500 1000 
500 1000 
500 1000 
500 1000 
500 1000 
